*SENSE:Minimize
NAME          MODEL
ROWS
 N  OBJ
 L  C0000000
 L  C0000001
 L  C0000002
 L  C0000003
 L  C0000004
 L  C0000005
 L  C0000006
 L  C0000007
 L  C0000008
 L  C0000009
 L  C0000010
 L  C0000011
 L  C0000012
 L  C0000013
 L  C0000014
 L  C0000015
 L  C0000016
 L  C0000017
 L  C0000018
 L  C0000019
 L  C0000020
 L  C0000021
 L  C0000022
 L  C0000023
 L  C0000024
 L  C0000025
 L  C0000026
 L  C0000027
 L  C0000028
 L  C0000029
 L  C0000030
 L  C0000031
 L  C0000032
 L  C0000033
 L  C0000034
 L  C0000035
 L  C0000036
 L  C0000037
 L  C0000038
 L  C0000039
 L  C0000040
 L  C0000041
 L  C0000042
 L  C0000043
 L  C0000044
 L  C0000045
 L  C0000046
 L  C0000047
 L  C0000048
 L  C0000049
 L  C0000050
 L  C0000051
 L  C0000052
 L  C0000053
 L  C0000054
 L  C0000055
 L  C0000056
 L  C0000057
 L  C0000058
 L  C0000059
 L  C0000060
 L  C0000061
 L  C0000062
 L  C0000063
 L  C0000064
 L  C0000065
 L  C0000066
 L  C0000067
 L  C0000068
 L  C0000069
 L  C0000070
 L  C0000071
 L  C0000072
 L  C0000073
 L  C0000074
 E  C0000075
 E  C0000076
 E  C0000077
 E  C0000078
 E  C0000079
 E  C0000080
 E  C0000081
 E  C0000082
 E  C0000083
 E  C0000084
 E  C0000085
 E  C0000086
 G  C0000087
 G  C0000088
 G  C0000089
 G  C0000090
 G  C0000091
 G  C0000092
 G  C0000093
 G  C0000094
 G  C0000095
 G  C0000096
 G  C0000097
 G  C0000098
 G  C0000099
 G  C0000100
 G  C0000101
 L  C0000102
 L  C0000103
 L  C0000104
 L  C0000105
COLUMNS
    X0000000  C0000049   1.000000000000e+00
    X0000000  C0000091   1.000000000000e+00
    X0000000  C0000104   1.000000000000e+00
    X0000000  OBJ        3.007901970686e+03
    MARK      'MARKER'                 'INTORG'
    X0000001  C0000004   1.000000000000e+00
    X0000001  C0000049  -1.000000000000e+06
    MARK      'MARKER'                 'INTEND'
    X0000002  C0000050   1.000000000000e+00
    X0000002  C0000092   1.000000000000e+00
    X0000002  C0000104   1.000000000000e+00
    X0000002  OBJ        3.004657255546e+03
    MARK      'MARKER'                 'INTORG'
    X0000003  C0000005   1.000000000000e+00
    X0000003  C0000050  -1.000000000000e+06
    MARK      'MARKER'                 'INTEND'
    X0000004  C0000051   1.000000000000e+00
    X0000004  C0000093   1.000000000000e+00
    X0000004  C0000104   1.000000000000e+00
    X0000004  OBJ        3.072539399126e+03
    MARK      'MARKER'                 'INTORG'
    X0000005  C0000006   1.000000000000e+00
    X0000005  C0000051  -1.000000000000e+06
    MARK      'MARKER'                 'INTEND'
    X0000006  C0000052   1.000000000000e+00
    X0000006  C0000094   1.000000000000e+00
    X0000006  C0000104   1.000000000000e+00
    X0000006  OBJ        3.075059470683e+03
    MARK      'MARKER'                 'INTORG'
    X0000007  C0000007   1.000000000000e+00
    X0000007  C0000052  -1.000000000000e+06
    MARK      'MARKER'                 'INTEND'
    X0000008  C0000046   1.000000000000e+00
    X0000008  C0000088   1.000000000000e+00
    X0000008  C0000104   1.000000000000e+00
    X0000008  OBJ        3.007901970686e+03
    MARK      'MARKER'                 'INTORG'
    X0000009  C0000001   1.000000000000e+00
    X0000009  C0000046  -1.000000000000e+06
    MARK      'MARKER'                 'INTEND'
    X0000011  C0000047   1.000000000000e+00
    X0000011  C0000048   1.000000000000e+00
    X0000011  C0000080   1.000000000000e+00
    X0000011  C0000081   1.000000000000e+00
    X0000011  C0000089   1.000000000000e+00
    X0000011  C0000090   1.000000000000e+00
    X0000011  C0000104   1.000000000000e+00
    X0000011  OBJ        3.072539399126e+03
    X0000011  C0000047   1.000000000000e+00
    X0000011  C0000048   1.000000000000e+00
    X0000011  C0000080   1.000000000000e+00
    X0000011  C0000081   1.000000000000e+00
    X0000011  C0000089   1.000000000000e+00
    X0000011  C0000090   1.000000000000e+00
    X0000011  C0000104   1.000000000000e+00
    X0000011  OBJ        3.075059470683e+03
    MARK      'MARKER'                 'INTORG'
    X0000013  C0000002   1.000000000000e+00
    X0000013  C0000003   1.000000000000e+00
    X0000013  C0000047  -1.000000000000e+06
    X0000013  C0000048  -1.000000000000e+06
    MARK      'MARKER'                 'INTEND'
    MARK      'MARKER'                 'INTORG'
    X0000013  C0000002   1.000000000000e+00
    X0000013  C0000003   1.000000000000e+00
    X0000013  C0000047  -1.000000000000e+06
    X0000013  C0000048  -1.000000000000e+06
    MARK      'MARKER'                 'INTEND'
    X0000014  C0000054   1.000000000000e+00
    X0000014  C0000096   1.000000000000e+00
    X0000014  C0000104   1.000000000000e+00
    X0000014  OBJ        8.879142120034e+03
    MARK      'MARKER'                 'INTORG'
    X0000015  C0000009   1.000000000000e+00
    X0000015  C0000054  -1.000000000000e+06
    MARK      'MARKER'                 'INTEND'
    X0000016  C0000053   1.000000000000e+00
    X0000016  C0000095   1.000000000000e+00
    X0000016  C0000104   1.000000000000e+00
    X0000016  OBJ        8.879142120034e+03
    MARK      'MARKER'                 'INTORG'
    X0000017  C0000008   1.000000000000e+00
    X0000017  C0000053  -1.000000000000e+06
    MARK      'MARKER'                 'INTEND'
    X0000018  C0000056   1.000000000000e+00
    X0000018  C0000098   1.000000000000e+00
    X0000018  C0000104   1.000000000000e+00
    X0000018  OBJ        2.827655411337e+03
    MARK      'MARKER'                 'INTORG'
    X0000019  C0000011   1.000000000000e+00
    X0000019  C0000056  -1.000000000000e+06
    MARK      'MARKER'                 'INTEND'
    X0000020  C0000057   1.000000000000e+00
    X0000020  C0000099   1.000000000000e+00
    X0000020  C0000104   1.000000000000e+00
    X0000020  OBJ        2.827655411337e+03
    MARK      'MARKER'                 'INTORG'
    X0000021  C0000012   1.000000000000e+00
    X0000021  C0000057  -1.000000000000e+06
    MARK      'MARKER'                 'INTEND'
    X0000022  C0000058   1.000000000000e+00
    X0000022  C0000100   1.000000000000e+00
    X0000022  C0000104   1.000000000000e+00
    X0000022  OBJ        2.827655411337e+03
    MARK      'MARKER'                 'INTORG'
    X0000023  C0000013   1.000000000000e+00
    X0000023  C0000058  -1.000000000000e+06
    MARK      'MARKER'                 'INTEND'
    X0000024  C0000059   1.000000000000e+00
    X0000024  C0000101   1.000000000000e+00
    X0000024  C0000104   1.000000000000e+00
    X0000024  OBJ        2.827655411337e+03
    MARK      'MARKER'                 'INTORG'
    X0000025  C0000014   1.000000000000e+00
    X0000025  C0000059  -1.000000000000e+06
    MARK      'MARKER'                 'INTEND'
    X0000026  C0000055   1.000000000000e+00
    X0000026  C0000082   1.000000000000e+00
    X0000026  C0000097   1.000000000000e+00
    X0000026  C0000104   1.000000000000e+00
    X0000026  OBJ        1.704991773517e+03
    MARK      'MARKER'                 'INTORG'
    X0000027  C0000010   1.000000000000e+00
    X0000027  C0000055  -1.000000000000e+06
    MARK      'MARKER'                 'INTEND'
    X0000028  C0000045   1.000000000000e+00
    X0000028  C0000079   1.000000000000e+00
    X0000028  C0000087   1.000000000000e+00
    X0000028  C0000104   1.000000000000e+00
    X0000028  OBJ        3.002747642112e+03
    MARK      'MARKER'                 'INTORG'
    X0000029  C0000000   1.000000000000e+00
    X0000029  C0000045  -1.000000000000e+06
    MARK      'MARKER'                 'INTEND'
    X0000030  C0000064   1.000000000000e+00
    X0000030  C0000091   1.000000000000e+00
    X0000030  C0000105   1.000000000000e+00
    X0000030  OBJ        3.007901970686e+03
    MARK      'MARKER'                 'INTORG'
    X0000031  C0000004   1.000000000000e+00
    X0000031  C0000064  -1.000000000000e+06
    MARK      'MARKER'                 'INTEND'
    X0000032  C0000065   1.000000000000e+00
    X0000032  C0000092   1.000000000000e+00
    X0000032  C0000105   1.000000000000e+00
    X0000032  OBJ        3.004657255546e+03
    MARK      'MARKER'                 'INTORG'
    X0000033  C0000005   1.000000000000e+00
    X0000033  C0000065  -1.000000000000e+06
    MARK      'MARKER'                 'INTEND'
    X0000034  C0000066   1.000000000000e+00
    X0000034  C0000093   1.000000000000e+00
    X0000034  C0000105   1.000000000000e+00
    X0000034  OBJ        3.072539399126e+03
    MARK      'MARKER'                 'INTORG'
    X0000035  C0000006   1.000000000000e+00
    X0000035  C0000066  -1.000000000000e+06
    MARK      'MARKER'                 'INTEND'
    X0000036  C0000067   1.000000000000e+00
    X0000036  C0000094   1.000000000000e+00
    X0000036  C0000105   1.000000000000e+00
    X0000036  OBJ        3.075059470683e+03
    MARK      'MARKER'                 'INTORG'
    X0000037  C0000007   1.000000000000e+00
    X0000037  C0000067  -1.000000000000e+06
    MARK      'MARKER'                 'INTEND'
    X0000038  C0000061   1.000000000000e+00
    X0000038  C0000088   1.000000000000e+00
    X0000038  C0000105   1.000000000000e+00
    X0000038  OBJ        3.007901970686e+03
    MARK      'MARKER'                 'INTORG'
    X0000039  C0000001   1.000000000000e+00
    X0000039  C0000061  -1.000000000000e+06
    MARK      'MARKER'                 'INTEND'
    X0000041  C0000062   1.000000000000e+00
    X0000041  C0000063   1.000000000000e+00
    X0000041  C0000084   1.000000000000e+00
    X0000041  C0000085   1.000000000000e+00
    X0000041  C0000089   1.000000000000e+00
    X0000041  C0000090   1.000000000000e+00
    X0000041  C0000105   1.000000000000e+00
    X0000041  OBJ        3.072539399126e+03
    X0000041  C0000062   1.000000000000e+00
    X0000041  C0000063   1.000000000000e+00
    X0000041  C0000084   1.000000000000e+00
    X0000041  C0000085   1.000000000000e+00
    X0000041  C0000089   1.000000000000e+00
    X0000041  C0000090   1.000000000000e+00
    X0000041  C0000105   1.000000000000e+00
    X0000041  OBJ        3.075059470683e+03
    MARK      'MARKER'                 'INTORG'
    X0000043  C0000002   1.000000000000e+00
    X0000043  C0000003   1.000000000000e+00
    X0000043  C0000062  -1.000000000000e+06
    X0000043  C0000063  -1.000000000000e+06
    MARK      'MARKER'                 'INTEND'
    MARK      'MARKER'                 'INTORG'
    X0000043  C0000002   1.000000000000e+00
    X0000043  C0000003   1.000000000000e+00
    X0000043  C0000062  -1.000000000000e+06
    X0000043  C0000063  -1.000000000000e+06
    MARK      'MARKER'                 'INTEND'
    X0000044  C0000069   1.000000000000e+00
    X0000044  C0000096   1.000000000000e+00
    X0000044  C0000105   1.000000000000e+00
    X0000044  OBJ        8.879142120034e+03
    MARK      'MARKER'                 'INTORG'
    X0000045  C0000009   1.000000000000e+00
    X0000045  C0000069  -1.000000000000e+06
    MARK      'MARKER'                 'INTEND'
    X0000046  C0000068   1.000000000000e+00
    X0000046  C0000095   1.000000000000e+00
    X0000046  C0000105   1.000000000000e+00
    X0000046  OBJ        8.879142120034e+03
    MARK      'MARKER'                 'INTORG'
    X0000047  C0000008   1.000000000000e+00
    X0000047  C0000068  -1.000000000000e+06
    MARK      'MARKER'                 'INTEND'
    X0000048  C0000071   1.000000000000e+00
    X0000048  C0000098   1.000000000000e+00
    X0000048  C0000105   1.000000000000e+00
    X0000048  OBJ        2.827655411337e+03
    MARK      'MARKER'                 'INTORG'
    X0000049  C0000011   1.000000000000e+00
    X0000049  C0000071  -1.000000000000e+06
    MARK      'MARKER'                 'INTEND'
    X0000050  C0000072   1.000000000000e+00
    X0000050  C0000099   1.000000000000e+00
    X0000050  C0000105   1.000000000000e+00
    X0000050  OBJ        2.827655411337e+03
    MARK      'MARKER'                 'INTORG'
    X0000051  C0000012   1.000000000000e+00
    X0000051  C0000072  -1.000000000000e+06
    MARK      'MARKER'                 'INTEND'
    X0000052  C0000073   1.000000000000e+00
    X0000052  C0000100   1.000000000000e+00
    X0000052  C0000105   1.000000000000e+00
    X0000052  OBJ        2.827655411337e+03
    MARK      'MARKER'                 'INTORG'
    X0000053  C0000013   1.000000000000e+00
    X0000053  C0000073  -1.000000000000e+06
    MARK      'MARKER'                 'INTEND'
    X0000054  C0000074   1.000000000000e+00
    X0000054  C0000101   1.000000000000e+00
    X0000054  C0000105   1.000000000000e+00
    X0000054  OBJ        2.827655411337e+03
    MARK      'MARKER'                 'INTORG'
    X0000055  C0000014   1.000000000000e+00
    X0000055  C0000074  -1.000000000000e+06
    MARK      'MARKER'                 'INTEND'
    X0000056  C0000070   1.000000000000e+00
    X0000056  C0000086   1.000000000000e+00
    X0000056  C0000097   1.000000000000e+00
    X0000056  C0000105   1.000000000000e+00
    X0000056  OBJ        1.704991773517e+03
    MARK      'MARKER'                 'INTORG'
    X0000057  C0000010   1.000000000000e+00
    X0000057  C0000070  -1.000000000000e+06
    MARK      'MARKER'                 'INTEND'
    X0000058  C0000060   1.000000000000e+00
    X0000058  C0000083   1.000000000000e+00
    X0000058  C0000087   1.000000000000e+00
    X0000058  C0000105   1.000000000000e+00
    X0000058  OBJ        3.002747642112e+03
    MARK      'MARKER'                 'INTORG'
    X0000059  C0000000   1.000000000000e+00
    X0000059  C0000060  -1.000000000000e+06
    MARK      'MARKER'                 'INTEND'
    X0000060  C0000019   1.000000000000e+00
    X0000060  C0000091   1.000000000000e+00
    X0000060  C0000102   1.000000000000e+00
    X0000060  OBJ        9.829482997298e+01
    MARK      'MARKER'                 'INTORG'
    X0000061  C0000004   1.000000000000e+00
    X0000061  C0000019  -1.000000000000e+06
    MARK      'MARKER'                 'INTEND'
    X0000062  C0000020   1.000000000000e+00
    X0000062  C0000092   1.000000000000e+00
    X0000062  C0000102   1.000000000000e+00
    X0000062  OBJ        9.810132408671e+01
    MARK      'MARKER'                 'INTORG'
    X0000063  C0000005   1.000000000000e+00
    X0000063  C0000020  -1.000000000000e+06
    MARK      'MARKER'                 'INTEND'
    X0000064  C0000021   1.000000000000e+00
    X0000064  C0000093   1.000000000000e+00
    X0000064  C0000102   1.000000000000e+00
    X0000064  OBJ        6.375526636770e+00
    MARK      'MARKER'                 'INTORG'
    X0000065  C0000006   1.000000000000e+00
    X0000065  C0000021  -1.000000000000e+06
    MARK      'MARKER'                 'INTEND'
    X0000066  C0000022   1.000000000000e+00
    X0000066  C0000094   1.000000000000e+00
    X0000066  C0000102   1.000000000000e+00
    X0000066  OBJ        4.704908431388e+00
    MARK      'MARKER'                 'INTORG'
    X0000067  C0000007   1.000000000000e+00
    X0000067  C0000022  -1.000000000000e+06
    MARK      'MARKER'                 'INTEND'
    X0000068  C0000016   1.000000000000e+00
    X0000068  C0000088   1.000000000000e+00
    X0000068  C0000102   1.000000000000e+00
    X0000068  OBJ        9.829482997298e+01
    MARK      'MARKER'                 'INTORG'
    X0000069  C0000001   1.000000000000e+00
    X0000069  C0000016  -1.000000000000e+06
    MARK      'MARKER'                 'INTEND'
    X0000071  C0000017   1.000000000000e+00
    X0000071  C0000018   1.000000000000e+00
    X0000071  C0000089   1.000000000000e+00
    X0000071  C0000090   1.000000000000e+00
    X0000071  C0000102   1.000000000000e+00
    X0000071  OBJ        6.375526636770e+00
    X0000071  C0000017   1.000000000000e+00
    X0000071  C0000018   1.000000000000e+00
    X0000071  C0000089   1.000000000000e+00
    X0000071  C0000090   1.000000000000e+00
    X0000071  C0000102   1.000000000000e+00
    X0000071  OBJ        4.704908431388e+00
    MARK      'MARKER'                 'INTORG'
    X0000073  C0000002   1.000000000000e+00
    X0000073  C0000003   1.000000000000e+00
    X0000073  C0000017  -1.000000000000e+06
    X0000073  C0000018  -1.000000000000e+06
    MARK      'MARKER'                 'INTEND'
    MARK      'MARKER'                 'INTORG'
    X0000073  C0000002   1.000000000000e+00
    X0000073  C0000003   1.000000000000e+00
    X0000073  C0000017  -1.000000000000e+06
    X0000073  C0000018  -1.000000000000e+06
    MARK      'MARKER'                 'INTEND'
    X0000074  C0000024   1.000000000000e+00
    X0000074  C0000096   1.000000000000e+00
    X0000074  C0000102   1.000000000000e+00
    X0000074  OBJ        7.593828271820e+03
    MARK      'MARKER'                 'INTORG'
    X0000075  C0000009   1.000000000000e+00
    X0000075  C0000024  -1.000000000000e+06
    MARK      'MARKER'                 'INTEND'
    X0000076  C0000023   1.000000000000e+00
    X0000076  C0000095   1.000000000000e+00
    X0000076  C0000102   1.000000000000e+00
    X0000076  OBJ        7.593828271820e+03
    MARK      'MARKER'                 'INTORG'
    X0000077  C0000008   1.000000000000e+00
    X0000077  C0000023  -1.000000000000e+06
    MARK      'MARKER'                 'INTEND'
    X0000078  C0000026   1.000000000000e+00
    X0000078  C0000098   1.000000000000e+00
    X0000078  C0000102   1.000000000000e+00
    X0000078  OBJ        5.617335945318e+03
    MARK      'MARKER'                 'INTORG'
    X0000079  C0000011   1.000000000000e+00
    X0000079  C0000026  -1.000000000000e+06
    MARK      'MARKER'                 'INTEND'
    X0000080  C0000027   1.000000000000e+00
    X0000080  C0000099   1.000000000000e+00
    X0000080  C0000102   1.000000000000e+00
    X0000080  OBJ        5.617335945318e+03
    MARK      'MARKER'                 'INTORG'
    X0000081  C0000012   1.000000000000e+00
    X0000081  C0000027  -1.000000000000e+06
    MARK      'MARKER'                 'INTEND'
    X0000082  C0000028   1.000000000000e+00
    X0000082  C0000100   1.000000000000e+00
    X0000082  C0000102   1.000000000000e+00
    X0000082  OBJ        5.617335945318e+03
    MARK      'MARKER'                 'INTORG'
    X0000083  C0000013   1.000000000000e+00
    X0000083  C0000028  -1.000000000000e+06
    MARK      'MARKER'                 'INTEND'
    X0000084  C0000029   1.000000000000e+00
    X0000084  C0000101   1.000000000000e+00
    X0000084  C0000102   1.000000000000e+00
    X0000084  OBJ        5.617335945318e+03
    MARK      'MARKER'                 'INTORG'
    X0000085  C0000014   1.000000000000e+00
    X0000085  C0000029  -1.000000000000e+06
    MARK      'MARKER'                 'INTEND'
    X0000086  C0000025   1.000000000000e+00
    X0000086  C0000076   1.000000000000e+00
    X0000086  C0000097   1.000000000000e+00
    X0000086  C0000102   1.000000000000e+00
    X0000086  OBJ        4.222017901839e+03
    MARK      'MARKER'                 'INTORG'
    X0000087  C0000010   1.000000000000e+00
    X0000087  C0000025  -1.000000000000e+06
    MARK      'MARKER'                 'INTEND'
    X0000088  C0000015   1.000000000000e+00
    X0000088  C0000075   1.000000000000e+00
    X0000088  C0000087   1.000000000000e+00
    X0000088  C0000102   1.000000000000e+00
    X0000088  OBJ        9.948067018220e+01
    MARK      'MARKER'                 'INTORG'
    X0000089  C0000000   1.000000000000e+00
    X0000089  C0000015  -1.000000000000e+06
    MARK      'MARKER'                 'INTEND'
    X0000090  C0000034   1.000000000000e+00
    X0000090  C0000091   1.000000000000e+00
    X0000090  C0000103   1.000000000000e+00
    X0000090  OBJ        8.034296265369e+03
    MARK      'MARKER'                 'INTORG'
    X0000091  C0000004   1.000000000000e+00
    X0000091  C0000034  -1.000000000000e+06
    MARK      'MARKER'                 'INTEND'
    X0000092  C0000035   1.000000000000e+00
    X0000092  C0000092   1.000000000000e+00
    X0000092  C0000103   1.000000000000e+00
    X0000092  OBJ        8.038779030772e+03
    MARK      'MARKER'                 'INTORG'
    X0000093  C0000005   1.000000000000e+00
    X0000093  C0000035  -1.000000000000e+06
    MARK      'MARKER'                 'INTEND'
    X0000094  C0000036   1.000000000000e+00
    X0000094  C0000093   1.000000000000e+00
    X0000094  C0000103   1.000000000000e+00
    X0000094  OBJ        8.073531990218e+03
    MARK      'MARKER'                 'INTORG'
    X0000095  C0000006   1.000000000000e+00
    X0000095  C0000036  -1.000000000000e+06
    MARK      'MARKER'                 'INTEND'
    X0000096  C0000037   1.000000000000e+00
    X0000096  C0000094   1.000000000000e+00
    X0000096  C0000103   1.000000000000e+00
    X0000096  OBJ        8.073006958773e+03
    MARK      'MARKER'                 'INTORG'
    X0000097  C0000007   1.000000000000e+00
    X0000097  C0000037  -1.000000000000e+06
    MARK      'MARKER'                 'INTEND'
    X0000098  C0000031   1.000000000000e+00
    X0000098  C0000088   1.000000000000e+00
    X0000098  C0000103   1.000000000000e+00
    X0000098  OBJ        8.034296265369e+03
    MARK      'MARKER'                 'INTORG'
    X0000099  C0000001   1.000000000000e+00
    X0000099  C0000031  -1.000000000000e+06
    MARK      'MARKER'                 'INTEND'
    X0000101  C0000032   1.000000000000e+00
    X0000101  C0000033   1.000000000000e+00
    X0000101  C0000077   1.000000000000e+00
    X0000101  C0000078   1.000000000000e+00
    X0000101  C0000089   1.000000000000e+00
    X0000101  C0000090   1.000000000000e+00
    X0000101  C0000103   1.000000000000e+00
    X0000101  OBJ        8.073531990218e+03
    X0000101  C0000032   1.000000000000e+00
    X0000101  C0000033   1.000000000000e+00
    X0000101  C0000077   1.000000000000e+00
    X0000101  C0000078   1.000000000000e+00
    X0000101  C0000089   1.000000000000e+00
    X0000101  C0000090   1.000000000000e+00
    X0000101  C0000103   1.000000000000e+00
    X0000101  OBJ        8.073006958773e+03
    MARK      'MARKER'                 'INTORG'
    X0000103  C0000002   1.000000000000e+00
    X0000103  C0000003   1.000000000000e+00
    X0000103  C0000032  -1.000000000000e+06
    X0000103  C0000033  -1.000000000000e+06
    MARK      'MARKER'                 'INTEND'
    MARK      'MARKER'                 'INTORG'
    X0000103  C0000002   1.000000000000e+00
    X0000103  C0000003   1.000000000000e+00
    X0000103  C0000032  -1.000000000000e+06
    X0000103  C0000033  -1.000000000000e+06
    MARK      'MARKER'                 'INTEND'
    X0000104  C0000039   1.000000000000e+00
    X0000104  C0000096   1.000000000000e+00
    X0000104  C0000103   1.000000000000e+00
    X0000104  OBJ        5.005118989115e+02
    MARK      'MARKER'                 'INTORG'
    X0000105  C0000009   1.000000000000e+00
    X0000105  C0000039  -1.000000000000e+06
    MARK      'MARKER'                 'INTEND'
    X0000106  C0000038   1.000000000000e+00
    X0000106  C0000095   1.000000000000e+00
    X0000106  C0000103   1.000000000000e+00
    X0000106  OBJ        5.005118989115e+02
    MARK      'MARKER'                 'INTORG'
    X0000107  C0000008   1.000000000000e+00
    X0000107  C0000038  -1.000000000000e+06
    MARK      'MARKER'                 'INTEND'
    X0000108  C0000041   1.000000000000e+00
    X0000108  C0000098   1.000000000000e+00
    X0000108  C0000103   1.000000000000e+00
    X0000108  OBJ        8.859233938004e+03
    MARK      'MARKER'                 'INTORG'
    X0000109  C0000011   1.000000000000e+00
    X0000109  C0000041  -1.000000000000e+06
    MARK      'MARKER'                 'INTEND'
    X0000110  C0000042   1.000000000000e+00
    X0000110  C0000099   1.000000000000e+00
    X0000110  C0000103   1.000000000000e+00
    X0000110  OBJ        8.859233938004e+03
    MARK      'MARKER'                 'INTORG'
    X0000111  C0000012   1.000000000000e+00
    X0000111  C0000042  -1.000000000000e+06
    MARK      'MARKER'                 'INTEND'
    X0000112  C0000043   1.000000000000e+00
    X0000112  C0000100   1.000000000000e+00
    X0000112  C0000103   1.000000000000e+00
    X0000112  OBJ        8.859233938004e+03
    MARK      'MARKER'                 'INTORG'
    X0000113  C0000013   1.000000000000e+00
    X0000113  C0000043  -1.000000000000e+06
    MARK      'MARKER'                 'INTEND'
    X0000114  C0000044   1.000000000000e+00
    X0000114  C0000101   1.000000000000e+00
    X0000114  C0000103   1.000000000000e+00
    X0000114  OBJ        8.859233938004e+03
    MARK      'MARKER'                 'INTORG'
    X0000115  C0000014   1.000000000000e+00
    X0000115  C0000044  -1.000000000000e+06
    MARK      'MARKER'                 'INTEND'
    X0000116  C0000040   1.000000000000e+00
    X0000116  C0000097   1.000000000000e+00
    X0000116  C0000103   1.000000000000e+00
    X0000116  OBJ        8.358889452901e+03
    MARK      'MARKER'                 'INTORG'
    X0000117  C0000010   1.000000000000e+00
    X0000117  C0000040  -1.000000000000e+06
    MARK      'MARKER'                 'INTEND'
    X0000118  C0000030   1.000000000000e+00
    X0000118  C0000087   1.000000000000e+00
    X0000118  C0000103   1.000000000000e+00
    X0000118  OBJ        8.163150452803e+03
    MARK      'MARKER'                 'INTORG'
    X0000119  C0000000   1.000000000000e+00
    X0000119  C0000030  -1.000000000000e+06
    MARK      'MARKER'                 'INTEND'
RHS
    RHS       C0000000   1.000000000000e+00
    RHS       C0000001   1.000000000000e+00
    RHS       C0000002   1.000000000000e+00
    RHS       C0000003   1.000000000000e+00
    RHS       C0000004   1.000000000000e+00
    RHS       C0000005   1.000000000000e+00
    RHS       C0000006   1.000000000000e+00
    RHS       C0000007   1.000000000000e+00
    RHS       C0000008   1.000000000000e+00
    RHS       C0000009   1.000000000000e+00
    RHS       C0000010   1.000000000000e+00
    RHS       C0000011   1.000000000000e+00
    RHS       C0000012   1.000000000000e+00
    RHS       C0000013   1.000000000000e+00
    RHS       C0000014   1.000000000000e+00
    RHS       C0000015   0.000000000000e+00
    RHS       C0000016   0.000000000000e+00
    RHS       C0000017   0.000000000000e+00
    RHS       C0000018   0.000000000000e+00
    RHS       C0000019   0.000000000000e+00
    RHS       C0000020   0.000000000000e+00
    RHS       C0000021   0.000000000000e+00
    RHS       C0000022   0.000000000000e+00
    RHS       C0000023   0.000000000000e+00
    RHS       C0000024   0.000000000000e+00
    RHS       C0000025   0.000000000000e+00
    RHS       C0000026   0.000000000000e+00
    RHS       C0000027   0.000000000000e+00
    RHS       C0000028   0.000000000000e+00
    RHS       C0000029   0.000000000000e+00
    RHS       C0000030   0.000000000000e+00
    RHS       C0000031   0.000000000000e+00
    RHS       C0000032   0.000000000000e+00
    RHS       C0000033   0.000000000000e+00
    RHS       C0000034   0.000000000000e+00
    RHS       C0000035   0.000000000000e+00
    RHS       C0000036   0.000000000000e+00
    RHS       C0000037   0.000000000000e+00
    RHS       C0000038   0.000000000000e+00
    RHS       C0000039   0.000000000000e+00
    RHS       C0000040   0.000000000000e+00
    RHS       C0000041   0.000000000000e+00
    RHS       C0000042   0.000000000000e+00
    RHS       C0000043   0.000000000000e+00
    RHS       C0000044   0.000000000000e+00
    RHS       C0000045   0.000000000000e+00
    RHS       C0000046   0.000000000000e+00
    RHS       C0000047   0.000000000000e+00
    RHS       C0000048   0.000000000000e+00
    RHS       C0000049   0.000000000000e+00
    RHS       C0000050   0.000000000000e+00
    RHS       C0000051   0.000000000000e+00
    RHS       C0000052   0.000000000000e+00
    RHS       C0000053   0.000000000000e+00
    RHS       C0000054   0.000000000000e+00
    RHS       C0000055   0.000000000000e+00
    RHS       C0000056   0.000000000000e+00
    RHS       C0000057   0.000000000000e+00
    RHS       C0000058   0.000000000000e+00
    RHS       C0000059   0.000000000000e+00
    RHS       C0000060   0.000000000000e+00
    RHS       C0000061   0.000000000000e+00
    RHS       C0000062   0.000000000000e+00
    RHS       C0000063   0.000000000000e+00
    RHS       C0000064   0.000000000000e+00
    RHS       C0000065   0.000000000000e+00
    RHS       C0000066   0.000000000000e+00
    RHS       C0000067   0.000000000000e+00
    RHS       C0000068   0.000000000000e+00
    RHS       C0000069   0.000000000000e+00
    RHS       C0000070   0.000000000000e+00
    RHS       C0000071   0.000000000000e+00
    RHS       C0000072   0.000000000000e+00
    RHS       C0000073   0.000000000000e+00
    RHS       C0000074   0.000000000000e+00
    RHS       C0000075   0.000000000000e+00
    RHS       C0000076   0.000000000000e+00
    RHS       C0000077   0.000000000000e+00
    RHS       C0000078   0.000000000000e+00
    RHS       C0000079   0.000000000000e+00
    RHS       C0000080   0.000000000000e+00
    RHS       C0000081   0.000000000000e+00
    RHS       C0000082   0.000000000000e+00
    RHS       C0000083   0.000000000000e+00
    RHS       C0000084   0.000000000000e+00
    RHS       C0000085   0.000000000000e+00
    RHS       C0000086   0.000000000000e+00
    RHS       C0000087   4.508491403000e+01
    RHS       C0000088   4.853822659000e+01
    RHS       C0000089   1.002419897000e+01
    RHS       C0000090   3.875384100000e+01
    RHS       C0000091   4.853822659000e+01
    RHS       C0000092   1.568379456000e+01
    RHS       C0000093   1.002419897000e+01
    RHS       C0000094   3.875384100000e+01
    RHS       C0000095   3.400000000000e+01
    RHS       C0000096   3.400000000000e+01
    RHS       C0000097   8.900000000000e+01
    RHS       C0000098   7.800000000000e+01
    RHS       C0000099   7.800000000000e+01
    RHS       C0000100   7.800000000000e+01
    RHS       C0000101   7.800000000000e+01
    RHS       C0000102   5.000000000000e+02
    RHS       C0000103   5.000000000000e+02
    RHS       C0000104   3.400000000000e+01
    RHS       C0000105   3.400000000000e+01
BOUNDS
 BV BND       X0000001
 BV BND       X0000003
 BV BND       X0000005
 BV BND       X0000007
 BV BND       X0000009
 BV BND       X0000013
 BV BND       X0000013
 BV BND       X0000015
 BV BND       X0000017
 BV BND       X0000019
 BV BND       X0000021
 BV BND       X0000023
 BV BND       X0000025
 BV BND       X0000027
 BV BND       X0000029
 BV BND       X0000031
 BV BND       X0000033
 BV BND       X0000035
 BV BND       X0000037
 BV BND       X0000039
 BV BND       X0000043
 BV BND       X0000043
 BV BND       X0000045
 BV BND       X0000047
 BV BND       X0000049
 BV BND       X0000051
 BV BND       X0000053
 BV BND       X0000055
 BV BND       X0000057
 BV BND       X0000059
 BV BND       X0000061
 BV BND       X0000063
 BV BND       X0000065
 BV BND       X0000067
 BV BND       X0000069
 BV BND       X0000073
 BV BND       X0000073
 BV BND       X0000075
 BV BND       X0000077
 BV BND       X0000079
 BV BND       X0000081
 BV BND       X0000083
 BV BND       X0000085
 BV BND       X0000087
 BV BND       X0000089
 BV BND       X0000091
 BV BND       X0000093
 BV BND       X0000095
 BV BND       X0000097
 BV BND       X0000099
 BV BND       X0000103
 BV BND       X0000103
 BV BND       X0000105
 BV BND       X0000107
 BV BND       X0000109
 BV BND       X0000111
 BV BND       X0000113
 BV BND       X0000115
 BV BND       X0000117
 BV BND       X0000119
ENDATA
